
        $ From http://www.csplib.org/Problems/prob009/data/helmut.pdf
        $ Problem number 21
        $ Sequence length : 23
        language ESSENCE' 1.0
        letting sizemaster be 332
        letting sizes be sequence(1,15,17,24,26,30,31,38,47,48,49,50,53,56,58,68,83,89,91,112,120,123,129)
        